Bruniera/ragionamento automatico/progetto/benchmark/asp/mid28.lp
start(0).
limit(6).
n(14).
strada(0,1,17).
strada(0,4,9).
strada(0,5,18).
strada(0,6,18).
strada(0,7,6).
strada(0,8,14).
strada(0,12,3).
strada(0,13,20).
strada(1,2,8).
strada(1,5,3).
strada(1,6,13).
strada(1,9,7).
strada(1,11,17).
strada(1,13,2).
strada(2,3,19).
strada(2,6,18).
strada(2,10,18).
strada(2,12,2).
strada(3,1,9).
strada(3,2,11).
strada(3,6,15).
strada(3,8,3).
strada(3,12,11).
strada(4,0,5).
strada(4,1,8).
strada(4,2,7).
strada(4,3,13).
strada(4,8,17).
strada(4,10,12).
strada(4,13,0).
strada(5,0,17).
strada(5,1,5).
strada(5,3,2).
strada(5,4,7).
strada(5,6,17).
strada(5,9,3).
strada(5,11,19).
strada(5,12,7).
strada(6,0,14).
strada(6,1,15).
strada(6,3,1).
strada(6,4,12).
strada(6,7,14).
strada(6,9,11).
strada(6,10,9).
strada(6,11,16).
strada(6,13,9).
strada(7,3,17).
strada(7,4,2).
strada(7,6,6).
strada(7,8,11).
strada(7,11,7).
strada(7,13,16).
strada(8,1,2).
strada(8,3,20).
strada(8,4,8).
strada(8,5,13).
strada(8,7,4).
strada(8,10,12).
strada(8,11,13).
strada(9,1,9).
strada(9,4,20).
strada(9,5,3).
strada(9,6,3).
strada(9,7,10).
strada(9,10,9).
strada(9,12,12).
strada(9,13,1).
strada(10,0,0).
strada(10,1,4).
strada(10,6,5).
strada(10,9,7).
strada(10,11,3).
strada(10,12,4).
strada(11,2,5).
strada(11,3,13).
strada(11,7,6).
strada(11,10,19).
strada(11,12,19).
strada(11,13,20).
strada(12,0,7).
strada(12,1,18).
strada(12,4,18).
strada(12,5,17).
strada(12,7,3).
strada(13,2,10).
strada(13,3,1).
strada(13,4,0).
strada(13,5,16).
