Bruniera/ragionamento automatico/progetto/benchmark/minizinc/mid28.dzn
start = 1;
limit = 6;
n = 14;
m=[|-1,17,-1,-1,9,18,18,6,14,-1,-1,-1,3,20,
|-1,-1,8,-1,-1,3,13,-1,-1,7,-1,17,-1,2,
|-1,-1,-1,19,-1,-1,18,-1,-1,-1,18,-1,2,-1,
|-1,9,11,-1,-1,-1,15,-1,3,-1,-1,-1,11,-1,
|5,8,7,13,-1,-1,-1,-1,17,-1,12,-1,-1,0,
|17,5,-1,2,7,-1,17,-1,-1,3,-1,19,7,-1,
|14,15,-1,1,12,-1,-1,14,-1,11,9,16,-1,9,
|-1,-1,-1,17,2,-1,6,-1,11,-1,-1,7,-1,16,
|-1,2,-1,20,8,13,-1,4,-1,-1,12,13,-1,-1,
|-1,9,-1,-1,20,3,3,10,-1,-1,9,-1,12,1,
|0,4,-1,-1,-1,-1,5,-1,-1,7,-1,3,4,-1,
|-1,-1,5,13,-1,-1,-1,6,-1,-1,19,-1,19,20,
|7,18,-1,-1,18,17,-1,3,-1,-1,-1,-1,-1,-1,
|-1,-1,10,1,0,16,-1,-1,-1,-1,-1,-1,-1,-1,
|]
;